46
Reactant (9,9'-bianthracene perpendicular stable form)
C     -0.73000      0.00000      0.00000
C      0.73000      0.00000      0.00000
C     -1.41000      0.86000     -0.86000
C      1.41000      0.86000      0.86000
C     -1.41000     -0.86000      0.86000
C      1.41000     -0.86000     -0.86000
C     -2.83000      0.86000     -0.86000
C      2.83000      0.86000      0.86000
C     -2.83000     -0.86000      0.86000
C      2.83000     -0.86000     -0.86000
C     -3.51000      0.00000      0.00000
C      3.51000      0.00000      0.00000
C     -0.73000      1.73000     -1.72000
C      0.73000      1.72000      1.73000
C     -0.73000     -1.73000      1.72000
C      0.73000     -1.72000     -1.73000
C     -3.51000      1.73000     -1.72000
C      3.51000      1.72000      1.73000
C     -3.51000     -1.73000      1.72000
C      3.51000     -1.72000     -1.73000
C     -1.42000      2.59000     -2.57000
C      1.42000      2.57000      2.59000
C     -1.42000     -2.59000      2.57000
C      1.42000     -2.57000     -2.59000
C     -2.82000      2.59000     -2.57000
C      2.82000      2.57000      2.59000
C     -2.82000     -2.59000      2.57000
C      2.82000     -2.57000     -2.59000
H     -4.60000      0.00000      0.00000
H      4.60000      0.00000      0.00000
H      0.35000      1.78000     -1.77000
H     -0.35000      1.77000      1.78000
H      0.35000     -1.78000      1.77000
H     -0.35000     -1.77000     -1.78000
H     -4.60000      1.75000     -1.74000
H      4.60000      1.74000      1.75000
H     -4.60000     -1.75000      1.74000
H      4.60000     -1.74000     -1.75000
H     -0.88000      3.26000     -3.24000
H      0.88000      3.24000      3.26000
H     -0.88000     -3.26000      3.24000
H      0.88000     -3.24000     -3.26000
H     -3.36000      3.26000     -3.24000
H      3.36000      3.24000      3.26000
H     -3.36000     -3.26000      3.24000
H      3.36000     -3.24000     -3.26000
